instances/instance_hard_1.dzn
num_days = 5;
num_time_slots = 60;
num_patients = 10;
num_visits = 3;
duration = [3, 1, 1];
lab_names = ["NMR", "Blood Sample", "Radiography"];
required = [| 0, 1, 1 | 0, 1, 1 | 0, 1, 1 | 1, 1, 0 | 0, 1, 0 | 1, 1, 1 | 1, 0, 0 | 0, 1, 1 | 1, 1, 0 | 1, 1, 1 |];