instances/instance_hard_1.lp
day(1..5).
time_slot(1..60).
patient(1..10).
visit(3, "NMR").
duration(3, 3).
visit(4, "Blood Sample").
duration(4, 1).
visit(1, "Radiography").
duration(1, 1).
required(1, 4).
required(1, 1).
required(2, 4).
required(2, 1).
required(3, 4).
required(3, 1).
required(4, 3).
required(4, 4).
required(5, 4).
required(6, 3).
required(6, 4).
required(6, 1).
required(7, 3).
required(8, 4).
required(8, 1).
required(9, 3).
required(9, 4).
required(10, 3).
required(10, 4).
required(10, 1).